<number of tasks>
50

<cycle time>
1000

<order strength>
0.196


<task times>
1 52
2 163
3 59
4 223
5 190
6 82
7 34
8 54
9 110
10 156
11 171
12 83
13 93
14 179
15 259
16 289
17 20
18 239
19 268
20 228
21 345
22 123
23 120
24 37
25 164
26 168
27 211
28 68
29 33
30 131
31 72
32 192
33 267
34 72
35 210
36 157
37 49
38 189
39 146
40 62
41 212
42 110
43 349
44 343
45 183
46 61
47 37
48 78
49 275
50 75

<precedence relations>
1,28
2,9
2,10
2,11
3,15
4,14
5,13
7,12
9,17
10,18
11,16
12,22
13,20
14,19
15,21
15,32
16,28
17,26
18,23
20,24
20,25
21,27
23,28
24,28
25,29
25,30
25,31
25,32
26,31
26,33
26,34
28,35
28,36
28,37
28,38
28,39
29,41
30,40
35,45
36,44
36,46
40,42
41,43
42,48
43,47
45,50
46,49

<end>
